c b=10,c=1025
p cnf 30 40
10 -20 0
10 -30 0
-10 20 0
-10 30 0
9 -19 0
9 -29 0
-9 19 0
-9 29 0
8 -18 0
8 -28 0
-8 18 0
-8 28 0
7 -17 0
7 -27 0
-7 17 0
-7 27 0
6 -16 0
6 -26 0
-6 16 0
-6 26 0
5 -15 0
5 -25 0
-5 15 0
-5 25 0
4 -14 0
4 -24 0
-4 14 0
-4 24 0
3 -13 0
3 -23 0
-3 13 0
-3 23 0
2 -12 0
2 -22 0
-2 12 0
-2 22 0
1 -11 0
1 -21 0
-1 11 0
-1 21 0
